0 -0.2 -0.2 0.237237 1 0 0 energy stress 307.457 11174.8
1 -0.194 -0.194 0.23012 1 0 0 energy stress 258.928 9396.11
2 -0.188 -0.188 0.223003 1 0 0 energy stress 217.667 7900.67
3 -0.182 -0.182 0.215886 1 0 0 energy stress 182.592 6643.12
4 -0.176 -0.176 0.208769 1 0 0 energy stress 152.782 5584.94
5 -0.17 -0.17 0.201651 1 0 0 energy stress 127.458 4693.6
6 -0.164 -0.164 0.194534 1 0 0 energy stress 105.959 3941.88
7 -0.158 -0.158 0.187417 1 0 0 energy stress 87.7244 3307.23
8 -0.152 -0.152 0.1803 1 0 0 energy stress 72.2794 2771.1
9 -0.146 -0.146 0.173183 1 0 0 energy stress 59.2173 2318.26
10 -0.14 -0.14 0.166066 1 0 0 energy stress 48.19 1936.08
11 -0.134 -0.134 0.158949 1 0 0 energy stress 38.8977 1613.99
12 -0.128 -0.128 0.151832 1 0 0 energy stress 31.0821 1343.04
13 -0.122 -0.122 0.144715 1 0 0 energy stress 24.5212 1115.5
14 -0.116 -0.116 0.137597 1 0 0 energy stress 19.0239 924.742
15 -0.11 -0.11 0.13048 1 0 0 energy stress 14.4272 765.022
16 -0.104 -0.104 0.123363 1 0 0 energy stress 10.5918 631.427
17 -0.098 -0.098 0.116246 1 0 0 energy stress 7.39954 519.777
18 -0.092 -0.092 0.109129 1 0 0 energy stress 4.75011 426.537
19 -0.086 -0.086 0.102012 1 0 0 energy stress 2.55851 348.738
20 -0.08 -0.08 0.0948948 1 0 0 energy stress 0.752721 283.888
21 -0.074 -0.074 0.0877777 1 0 0 energy stress -0.728282 229.902
22 -0.068 -0.068 0.0806606 1 0 0 energy stress -1.93621 185.032
23 -0.062 -0.062 0.0735435 1 0 0 energy stress -2.91486 147.813
24 -0.056 -0.056 0.0664263 1 0 0 energy stress -3.70146 117.01
25 -0.05 -0.05 0.0593092 2 1 0 energy stress -4.32746 91.5864
26 -0.044 -0.044 0.0521921 2 1 0 energy stress -4.81948 70.6712
27 -0.038 -0.038 0.045075 2 1 0 energy stress -5.2001 53.5289
28 -0.032 -0.032 0.0379579 2 1 0 energy stress -5.48837 39.5407
29 -0.026 -0.026 0.0308408 2 1 0 energy stress -5.70038 28.1854
30 -0.02 -0.02 0.0237237 2 1 0 energy stress -5.84973 19.0239
31 -0.014 -0.014 0.0166066 2 1 0 energy stress -5.94786 11.6865
32 -0.008 -0.008 0.00948948 2 1 0 energy stress -6.00437 5.86161
33 -0.002 -0.002 0.00237237 2 1 0 energy stress -6.02735 1.28664
34 0.004 0.004 -0.00474474 2 1 0 energy stress -6.02354 -2.26041
35 0.01 0.01 -0.0118618 2 1 0 energy stress -5.99859 -4.96772
36 0.016 0.016 -0.018979 2 1 0 energy stress -5.95715 -6.99582
37 0.022 0.022 -0.0260961 2 1 0 energy stress -5.90306 -8.48295
38 0.028 0.028 -0.0332132 2 1 0 energy stress -5.83942 -9.54973
39 0.034 0.034 -0.0403303 2 1 0 energy stress -5.76867 -10.3031
40 0.04 0.04 -0.0474474 2 1 0 energy stress -5.69268 -10.8395
41 0.046 0.046 -0.0545645 2 1 0 energy stress -5.61277 -11.2468
42 0.052 0.052 -0.0616816 2 1 0 energy stress -5.52975 -11.6052
43 0.058 0.058 -0.0687987 2 1 0 energy stress -5.444 -11.9861
44 0.064 0.064 -0.0759158 2 1 0 energy stress -5.35545 -12.4496
45 0.07 0.07 -0.0830329 2 1 0 energy stress -5.26366 -13.0401
46 0.076 0.076 -0.09015 2 1 0 energy stress -5.16789 -13.7803
47 0.082 0.082 -0.0972671 2 1 0 energy stress -5.06712 -14.6659
48 0.088 0.088 -0.104384 2 1 0 energy stress -4.9601 -15.66
49 0.094 0.094 -0.111501 2 1 0 energy stress -4.84538 -16.691
50 0.1 0.1 -0.118618 2 1 0 energy stress -4.72141 -17.6545
51 0.106 0.106 -0.125736 2 1 0 energy stress -4.58682 -18.4207
52 0.112 0.112 -0.132853 2 1 0 energy stress -4.44092 -18.8472
53 0.118 0.118 -0.13997 1 0 0 energy stress -4.28447 -18.7939
54 0.124 0.124 -0.147087 1 0 0 energy stress -4.12153 -18.1586
55 0.13 0.13 -0.154204 1 0 0 energy stress -3.95914 -16.8743
56 0.136 0.136 -0.161321 1 0 0 energy stress -3.80825 -14.9411
57 0.142 0.142 -0.168438 1 0 0 energy stress -3.68234 -12.4309
58 0.148 0.148 -0.175555 1 0 0 energy stress -3.59492 -9.48488
59 0.154 0.154 -0.182672 1 0 0 energy stress -3.55631 -6.30102
60 0.16 0.16 -0.18979 1 0 0 energy stress -3.57088 -3.112
61 0.166 0.166 -0.196907 1 0 0 energy stress -3.63582 -0.156941
62 0.172 0.172 -0.204024 1 0 0 energy stress -3.74199 2.34774
63 0.178 0.178 -0.211141 1 0 0 energy stress -3.87645 4.23391
64 0.184 0.184 -0.218258 1 0 0 energy stress -4.02574 5.39881
65 0.19 0.19 -0.225375 1 0 0 energy stress -4.17809 5.81398
66 0.196 0.196 -0.232492 2 1 0 energy stress -4.32541 5.5191
67 0.202 0.202 -0.239609 2 1 0 energy stress -4.46296 4.61085
68 0.208 0.208 -0.246726 2 1 0 energy stress -4.58851 3.22374
69 0.214 0.214 -0.253844 2 1 0 energy stress -4.7012 1.50916
70 0.22 0.22 -0.260961 2 1 0 energy stress -4.80045 -0.384214
71 0.226 0.226 -0.268078 2 1 0 energy stress -4.88513 -2.32578
72 0.232 0.232 -0.275195 2 1 0 energy stress -4.953 -4.21283
73 0.238 0.238 -0.282312 2 1 0 energy stress -5.00023 -5.97446
74 0.244 0.244 -0.289429 2 1 0 energy stress -5.02084 -7.57048
75 0.25 0.25 -0.296546 2 1 0 energy stress -5.00599 -8.98682
76 0.256 0.256 -0.303663 2 1 0 energy stress -4.94309 -10.229
77 0.262 0.262 -0.31078 2 1 0 energy stress -4.81456 -11.3153
78 0.268 0.268 -0.317898 2 1 0 energy stress -4.59625 -12.2704
79 0.274 0.274 -0.325015 2 1 0 energy stress -4.25548 -13.1207
80 0.28 0.28 -0.332132 1 0 0 energy stress -3.74836 -13.891
81 0.286 0.286 -0.339249 1 0 0 energy stress -3.01635 -14.6025
82 0.292 0.292 -0.346366 1 0 0 energy stress -1.98188 -15.2723
83 0.298 0.298 -0.353483 1 0 0 energy stress -0.542323 -15.9132
84 0.304 0.304 -0.3606 1 0 0 energy stress 1.43744 -16.5345
85 0.31 0.31 -0.367717 1 0 0 energy stress 4.13507 -17.1427
86 0.316 0.316 -0.374834 1 0 0 energy stress 7.78373 -17.7423
87 0.322 0.322 -0.381951 1 0 0 energy stress 12.689 -18.3352
88 0.328 0.328 -0.389069 1 0 0 energy stress 19.2509 -18.9259
89 0.334 0.334 -0.396186 1 0 0 energy stress 27.9924 -19.515
90 0.34 0.34 -0.403303 1 0 0 energy stress 39.5969 -20.1043
91 0.346 0.346 -0.41042 1 0 0 energy stress 54.9567 -20.6958
92 0.352 0.352 -0.417537 1 0 0 energy stress 75.2358 -21.2916
93 0.358 0.358 -0.424654 1 0 0 energy stress 101.953 -21.8944
94 0.364 0.364 -0.431771 1 0 0 energy stress 137.085 -22.5075
95 0.37 0.37 -0.438888 1 0 0 energy stress 183.212 -23.1344
96 0.376 0.376 -0.446005 1 0 0 energy stress 243.691 -23.7794
97 0.382 0.382 -0.453123 1 0 0 energy stress 322.892 -24.4475
98 0.388 0.388 -0.46024 1 0 0 energy stress 426.505 -25.1443
99 0.394 0.394 -0.467357 1 0 0 energy stress 561.935 -25.876
100 0.4 0.4 -0.474474 1 0 0 energy stress 738.812 -26.6494
