0 -0.4 -0.4 0.474474 1 0 0 energy stress 65371.2 3.64774e+06
1 -0.393 -0.393 0.466171 1 0 0 energy stress 54430.9 2.96819e+06
2 -0.386 -0.386 0.457867 1 0 0 energy stress 45317.2 2.41625e+06
3 -0.379 -0.379 0.449564 1 0 0 energy stress 37725.4 1.96775e+06
4 -0.372 -0.372 0.441261 1 0 0 energy stress 31401.6 1.60313e+06
5 -0.365 -0.365 0.432957 1 0 0 energy stress 26134.4 1.30657e+06
6 -0.358 -0.358 0.424654 1 0 0 energy stress 21747.5 1.06526e+06
7 -0.351 -0.351 0.416351 1 0 0 energy stress 18094 868828
8 -0.344 -0.344 0.408048 1 0 0 energy stress 15051.6 708852
9 -0.337 -0.337 0.399744 1 0 0 energy stress 12518.2 578517
10 -0.33 -0.33 0.391441 1 0 0 energy stress 10408.9 472290
11 -0.323 -0.323 0.383138 1 0 0 energy stress 8652.84 385677
12 -0.316 -0.316 0.374834 1 0 0 energy stress 7191.09 315033
13 -0.309 -0.309 0.366531 1 0 0 energy stress 5974.46 257393
14 -0.302 -0.302 0.358228 1 0 0 energy stress 4961.99 210346
15 -0.295 -0.295 0.349925 1 0 0 energy stress 4119.55 171935
16 -0.288 -0.288 0.341621 1 0 0 energy stress 3418.71 140563
17 -0.281 -0.281 0.333318 1 0 0 energy stress 2835.78 114934
18 -0.274 -0.274 0.325015 1 0 0 energy stress 2351.03 93990
19 -0.267 -0.267 0.316711 1 0 0 energy stress 1948.01 76870.2
20 -0.26 -0.26 0.308408 1 0 0 energy stress 1613.04 62872.6
21 -0.253 -0.253 0.300105 1 0 0 energy stress 1334.7 51424.8
22 -0.246 -0.246 0.291801 1 0 0 energy stress 1103.5 42059.9
23 -0.239 -0.239 0.283498 1 0 0 energy stress 911.527 34397.1
24 -0.232 -0.232 0.275195 1 0 0 energy stress 752.203 28125.7
25 -0.225 -0.225 0.266892 1 0 0 energy stress 620.038 22992.7
26 -0.218 -0.218 0.258588 1 0 0 energy stress 510.463 18791.7
27 -0.211 -0.211 0.250285 1 0 0 energy stress 419.666 15354.5
28 -0.204 -0.204 0.241982 1 0 0 energy stress 344.466 12543.9
29 -0.197 -0.197 0.233678 1 0 0 energy stress 282.209 10246.9
30 -0.19 -0.19 0.225375 1 0 0 energy stress 230.683 8370.62
31 -0.183 -0.183 0.217072 1 0 0 energy stress 188.049 6837.91
32 -0.176 -0.176 0.208769 1 0 0 energy stress 152.782 5584.94
33 -0.169 -0.169 0.200465 1 0 0 energy stress 123.625 4559.28
34 -0.162 -0.162 0.192162 1 0 0 energy stress 99.5428 3718.31
35 -0.155 -0.155 0.183859 1 0 0 energy stress 79.6801 3027.87
36 -0.148 -0.148 0.175555 1 0 0 energy stress 63.3292 2460.78
37 -0.141 -0.141 0.167252 1 0 0 energy stress 49.8998 1995.34
38 -0.134 -0.134 0.158949 1 0 0 energy stress 38.8977 1613.99
39 -0.127 -0.127 0.150645 1 0 0 energy stress 29.907 1302.29
40 -0.12 -0.12 0.142342 1 0 0 energy stress 22.5792 1048.13
41 -0.113 -0.113 0.134039 1 0 0 energy stress 16.6222 841.327
42 -0.106 -0.106 0.125736 1 0 0 energy stress 11.7933 673.328
43 -0.099 -0.099 0.117432 1 0 0 energy stress 7.89138 537.019
44 -0.092 -0.092 0.109129 1 0 0 energy stress 4.75011 426.537
45 -0.085 -0.085 0.100826 1 0 0 energy stress 2.23253 337.091
46 -0.078 -0.078 0.0925224 1 0 0 energy stress 0.225696 264.778
47 -0.071 -0.071 0.0842191 1 0 0 energy stress -1.36347 206.425
48 -0.064 -0.064 0.0759158 1 0 0 energy stress -2.61168 159.45
49 -0.057 -0.057 0.0676125 1 0 0 energy stress -3.5823 121.744
50 -0.05 -0.05 0.0593092 2 1 0 energy stress -4.32746 91.5864
51 -0.043 -0.043 0.0510059 2 1 0 energy stress -4.8901 67.5702
52 -0.036 -0.036 0.0427027 2 1 0 energy stress -5.3056 48.5433
53 -0.029 -0.029 0.0343994 2 1 0 energy stress -5.603 33.5631
54 -0.022 -0.022 0.0260961 2 1 0 energy stress -5.80617 21.8581
55 -0.015 -0.015 0.0177928 2 1 0 energy stress -5.93463 12.7966
56 -0.008 -0.008 0.00948948 2 1 0 energy stress -6.00437 5.86161
57 -0.001 -0.001 0.00118618 2 1 0 energy stress -6.02841 0.629545
58 0.006 0.006 -0.00711711 2 1 0 energy stress -6.01733 -3.24771
59 0.013 0.013 -0.0154204 2 1 0 energy stress -5.97968 -6.05756
60 0.02 0.02 -0.0237237 2 1 0 energy stress -5.92229 -8.03958
61 0.027 0.027 -0.032027 2 1 0 energy stress -5.85058 -9.39644
62 0.034 0.034 -0.0403303 2 1 0 energy stress -5.76867 -10.3031
63 0.041 0.041 -0.0486336 2 1 0 energy stress -5.6796 -10.9141
64 0.048 0.048 -0.0569369 2 1 0 energy stress -5.58541 -11.368
65 0.055 0.055 -0.0652402 2 1 0 energy stress -5.48722 -11.7888
66 0.062 0.062 -0.0735435 2 1 0 energy stress -5.3853 -12.2829
67 0.069 0.069 -0.0818467 2 1 0 energy stress -5.27921 -12.9316
68 0.076 0.076 -0.09015 2 1 0 energy stress -5.16789 -13.7803
69 0.083 0.083 -0.0984533 2 1 0 energy stress -5.04976 -14.8255
70 0.09 0.09 -0.106757 2 1 0 energy stress -4.92279 -16.004
71 0.097 0.097 -0.11506 2 1 0 energy stress -4.78465 -17.1888
72 0.104 0.104 -0.123363 2 1 0 energy stress -4.63293 -18.1959
73 0.111 0.111 -0.131667 2 1 0 energy stress -4.46601 -18.8057
74 0.118 0.118 -0.13997 1 0 0 energy stress -4.28447 -18.7939
75 0.125 0.125 -0.148273 1 0 0 energy stress -4.09418 -17.9905
76 0.132 0.132 -0.156576 1 0 0 energy stress -3.90693 -16.2999
77 0.139 0.139 -0.16488 1 0 0 energy stress -3.74129 -13.7509
78 0.146 0.146 -0.173183 1 0 0 energy stress -3.61905 -10.5041
79 0.153 0.153 -0.181486 1 0 0 energy stress -3.55908 -6.83855
80 0.16 0.16 -0.18979 1 0 0 energy stress -3.57088 -3.112
81 0.167 0.167 -0.198093 1 0 0 energy stress -3.65097 0.297039
82 0.174 0.174 -0.206396 1 0 0 energy stress -3.78435 3.05171
83 0.181 0.181 -0.214699 1 0 0 energy stress -3.9501 4.90981
84 0.188 0.188 -0.223003 1 0 0 energy stress -4.12753 5.75778
85 0.195 0.195 -0.231306 1 0 0 energy stress -4.30145 5.61403
86 0.202 0.202 -0.239609 2 1 0 energy stress -4.46296 4.61085
87 0.209 0.209 -0.247913 2 1 0 energy stress -4.6082 2.95657
88 0.216 0.216 -0.256216 2 1 0 energy stress -4.73582 0.890957
89 0.223 0.223 -0.264519 2 1 0 energy stress -4.84472 -1.35612
90 0.23 0.23 -0.272822 2 1 0 energy stress -4.93244 -3.59491
91 0.237 0.237 -0.281126 2 1 0 energy stress -4.99401 -5.69163
92 0.244 0.244 -0.289429 2 1 0 energy stress -5.02084 -7.57048
93 0.251 0.251 -0.297732 2 1 0 energy stress -4.99925 -9.20557
94 0.258 0.258 -0.306036 2 1 0 energy stress -4.90858 -10.6073
95 0.265 0.265 -0.314339 2 1 0 energy stress -4.71844 -11.8076
96 0.272 0.272 -0.322642 2 1 0 energy stress -4.38512 -12.8473
97 0.279 0.279 -0.330946 2 1 0 energy stress -3.8467 -13.7672
98 0.286 0.286 -0.339249 1 0 0 energy stress -3.01635 -14.6025
99 0.293 0.293 -0.347552 1 0 0 energy stress -1.77328 -15.3808
100 0.3 0.3 -0.355855 1 0 0 energy stress 0.0497861 -16.1221
